s td 620 2 760
b 1 1 379
b 2 2
b 3 3
b 4 4
b 5 5 579
b 6 597 598
b 7 5 598
b 8 5 633
b 9 6 463
b 10 28 226
b 11 225 226
b 12 7 225
b 13 7 291
b 14 8 292
b 15 9
b 16 10
b 17 11
b 18 12 252
b 19 251 252
b 20 252
b 21 13
b 22 14 301
b 23 14 708
b 24 707 708
b 25 708
b 26 15 261
b 27 16
b 28 17 433
b 29 17 697
b 30 18
b 31 19 246
b 32 19 581
b 33 581 582
b 34 20
b 35 21
b 36 22 584
b 37 583 584
b 38 584
b 39 23
b 40 24 284
b 41 25
b 42 26 580
b 43 26 718
b 44 717 718
b 45 718
b 46 383 384
b 47 27 383
b 48 27 623
b 49 29 544
b 50 543 544
b 51 544
b 52 30 466
b 53 465 466
b 54 466
b 55 31
b 56 32 626
b 57 32 681
b 58 33 349
b 59 34 719
b 60 35 720
b 61 413 414
b 62 36 414
b 63 701 702
b 64 36 701
b 65 36 710
b 66 37 591
b 67 505 506
b 68 58 505
b 69 58 592
b 70 591 592
b 71 592
b 72 38 434
b 73 39 502
b 74 501 502
b 75 502
b 76 40 590
b 77 41
b 78 42 416
b 79 42 713
b 80 43 593
b 81 43 714
b 82 423 424
b 83 44 424
b 84 44 594
b 85 45
b 86 46 657
b 87 47 601
b 88 47 658
b 89 48 624
b 90 49 637
b 91 637 638
b 92 50
b 93 51
b 94 52 503
b 95 503 504
b 96 53
b 97 54 468
b 98 54 627
b 99 55 727
b 100 56
b 101 57
b 102 59 389
b 103 60 236
b 104 61 275
b 105 62 276
b 106 275 276
b 107 276
b 108 63
b 109 64
b 110 65 417
b 111 217 218
b 112 66 218
b 113 66 605
b 114 67
b 115 68
b 116 69
b 117 70
b 118 71 343
b 119 71 373
b 120 72
b 121 73 488
b 122 74 266
b 123 265 266
b 124 266
b 125 75 267
b 126 75 570
b 127 76 435
b 128 76 450
b 129 269 270
b 130 77 269
b 131 77 436
b 132 77 647
b 133 78 248
b 134 78 303
b 135 79 304
b 136 80
b 137 203 204
b 138 81 203
b 139 81 521
b 140 521 522
b 141 82
b 142 83 365
b 143 83 489
b 144 84 228
b 145 85 629
b 146 629 630
b 147 86 437
b 148 86 730
b 149 729 730
b 150 730
b 151 87
b 152 88
b 153 89
b 154 90 454
b 155 90 644
b 156 91 295
b 157 92 344
b 158 92 673
b 159 93 237
b 160 237 238
b 161 94
b 162 659 660
b 163 95 659
b 164 95 676
b 165 96
b 166 97
b 167 98
b 168 99 548
b 169 100
b 170 101
b 171 102 650
b 172 649 650
b 173 650
b 174 103 429
b 175 104 490
b 176 105 387
b 177 106
b 178 107 588
b 179 108 230
b 180 108 752
b 181 109
b 182 110 618
b 183 617 618
b 184 618
b 185 355 356
b 186 111 356
b 187 111 655
b 188 112
b 189 113 683
b 190 113 758
b 191 114
b 192 115 212
b 193 115 375
b 194 116
b 195 455 456
b 196 117 456
b 197 117 693
b 198 118 694
b 199 119 277
b 200 119 575
b 201 120 278
b 202 121 665
b 203 122
b 204 123 367
b 205 123 421
b 206 124
b 207 125
b 208 126 402
b 209 127 616
b 210 615 616
b 211 616
b 212 128
b 213 313 314
b 214 129 314
b 215 129 491
b 216 130
b 217 131 685
b 218 132
b 219 133 347
b 220 347 348
b 221 134 348
b 222 134 552
b 223 551 552
b 224 552
b 225 135 509
b 226 509 510
b 227 136 441
b 228 137
b 229 431 432
b 230 138 432
b 231 138 640
b 232 639 640
b 233 640
b 234 139
b 235 140 576
b 236 141 285
b 237 142 242
b 238 143 472
b 239 144
b 240 166 564
b 241 145 281
b 242 145 534
b 243 145 563
b 244 563 564
b 245 564
b 246 146 249
b 247 147
b 248 231 232
b 249 148 232
b 250 148 474
b 251 149 646
b 252 150 760
b 253 151 444
b 254 152
b 255 377 378
b 256 153 377
b 257 153 445
b 258 153 512
b 259 511 512
b 260 512
b 261 154 446
b 262 154 607
b 263 155 608
b 264 156 493
b 265 156 668
b 266 667 668
b 267 668
b 268 157
b 269 158 577
b 270 223 224
b 271 159 223
b 272 159 479
b 273 160
b 274 161 475
b 275 475 476
b 276 162 286
b 277 162 572
b 278 162 573
b 279 163 574
b 280 164 558
b 281 165 405
b 282 167
b 283 168
b 284 169
b 285 170 358
b 286 357 358
b 287 358
b 288 171
b 289 407 408
b 290 172 408
b 291 172 671
b 292 173
b 293 174 253
b 294 175
b 295 176 662
b 296 661 662
b 297 662
b 298 177
b 299 178
b 300 179 731
b 301 731 732
b 302 180 480
b 303 181
b 304 182 342
b 305 341 342
b 306 342
b 307 183
b 308 184 482
b 309 185
b 310 186
b 311 187 309
b 312 319 320
b 313 188 320
b 314 188 739
b 315 739 740
b 316 189
b 317 190 396
b 318 190 484
b 319 483 484
b 320 484
b 321 191
b 322 192
b 323 193 287
b 324 194 288
b 325 194 535
b 326 535 536
b 327 195
b 328 196
b 329 197 515
b 330 198 516
b 331 515 516
b 332 516
b 333 199 462
b 334 200 312
b 335 201
b 336 202
b 337 205
b 338 206
b 339 207
b 340 208
b 341 209
b 342 210
b 343 211
b 344 213
b 345 214
b 346 215
b 347 216
b 348 219 220
b 349 221
b 350 222
b 351 227
b 352 229
b 353 233
b 354 234
b 355 235
b 356 239
b 357 240
b 358 241
b 359 243
b 360 244
b 361 245
b 362 247
b 363 250
b 364 254
b 365 255 256
b 366 257
b 367 258
b 368 259 260
b 369 262
b 370 263 264
b 371 268
b 372 271 272
b 373 273 274
b 374 279 280
b 375 282
b 376 283
b 377 289
b 378 290
b 379 293
b 380 294
b 381 296
b 382 297
b 383 298
b 384 299
b 385 300
b 386 302
b 387 305
b 388 306
b 389 307 308
b 390 310
b 391 311
b 392 315 316
b 393 317 318
b 394 321 322
b 395 323
b 396 324
b 397 325 326
b 398 327 328
b 399 329 330
b 400 331
b 401 332
b 402 333
b 403 334
b 404 335
b 405 336
b 406 337
b 407 338
b 408 339
b 409 340
b 410 345
b 411 346
b 412 350
b 413 351
b 414 352
b 415 353 354
b 416 359
b 417 360
b 418 361
b 419 362
b 420 363 364
b 421 366
b 422 368
b 423 369
b 424 370
b 425 371
b 426 372
b 427 374
b 428 376
b 429 380
b 430 381 382
b 431 385 386
b 432 388
b 433 390
b 434 391
b 435 392
b 436 393
b 437 394
b 438 395
b 439 397
b 440 398
b 441 399
b 442 400
b 443 401
b 444 403 404
b 445 406
b 446 409
b 447 410
b 448 411 412
b 449 415
b 450 418
b 451 419
b 452 420
b 453 422
b 454 425
b 455 426
b 456 427
b 457 428
b 458 430
b 459 438
b 460 439
b 461 440
b 462 442
b 463 443
b 464 447 448
b 465 449
b 466 451
b 467 452
b 468 453
b 469 457 458
b 470 459
b 471 460
b 472 461
b 473 464
b 474 467
b 475 469
b 476 470
b 477 471
b 478 473
b 479 477 478
b 480 481
b 481 485 486
b 482 487
b 483 492
b 484 494
b 485 495 496
b 486 497 498
b 487 499
b 488 500
b 489 507 508
b 490 513 514
b 491 517 518
b 492 519
b 493 520
b 494 523 524
b 495 525 526
b 496 527
b 497 528
b 498 529
b 499 530
b 500 531
b 501 532
b 502 533
b 503 537
b 504 538
b 505 539 540
b 506 541 542
b 507 545
b 508 546
b 509 547
b 510 549 550
b 511 553
b 512 554
b 513 555
b 514 556
b 515 557
b 516 559
b 517 560
b 518 561
b 519 562
b 520 565
b 521 566
b 522 567
b 523 568
b 524 569
b 525 571
b 526 578
b 527 585
b 528 586
b 529 587
b 530 589
b 531 595 596
b 532 599 600
b 533 602
b 534 603
b 535 604
b 536 606
b 537 609 610
b 538 611 612
b 539 613
b 540 614
b 541 619
b 542 620
b 543 621
b 544 622
b 545 625
b 546 628
b 547 631 632
b 548 634
b 549 635
b 550 636
b 551 641 642
b 552 643
b 553 645
b 554 648
b 555 651
b 556 652
b 557 653
b 558 654
b 559 656
b 560 663
b 561 664
b 562 666
b 563 669 670
b 564 672
b 565 674
b 566 675
b 567 677
b 568 678
b 569 679
b 570 680
b 571 682
b 572 684
b 573 686
b 574 687 688
b 575 689
b 576 690
b 577 691
b 578 692
b 579 695
b 580 696
b 581 698
b 582 699
b 583 700
b 584 703
b 585 704
b 586 705
b 587 706
b 588 709
b 589 711
b 590 712
b 591 715 716
b 592 721
b 593 722
b 594 723
b 595 724
b 596 725
b 597 726
b 598 728
b 599 733
b 600 734
b 601 735
b 602 736
b 603 737 738
b 604 741
b 605 742
b 606 743
b 607 744
b 608 745
b 609 746
b 610 747
b 611 748
b 612 749
b 613 750
b 614 751
b 615 753
b 616 754
b 617 755
b 618 756
b 619 757
b 620 759
1 2
1 3
1 4
1 5
1 9
1 10
1 14
1 15
1 16
1 17
1 18
1 21
1 22
1 26
1 27
1 28
1 30
1 31
1 34
1 35
1 36
1 39
1 40
1 41
1 42
1 46
1 49
1 52
1 55
1 56
1 58
1 59
1 60
1 61
1 66
1 72
1 73
1 76
1 77
1 78
1 80
1 82
1 85
1 86
1 87
1 89
1 90
1 92
1 93
1 94
1 96
1 97
1 99
1 100
1 101
1 102
1 103
1 104
1 108
1 109
1 110
1 111
1 114
1 115
1 116
1 117
1 118
1 120
1 121
1 122
1 125
1 127
1 129
1 133
1 135
1 136
1 137
1 141
1 142
1 144
1 145
1 147
1 151
1 152
1 153
1 154
1 156
1 157
1 159
1 161
1 162
1 165
1 166
1 167
1 168
1 169
1 170
1 171
1 174
1 175
1 176
1 177
1 178
1 179
1 181
1 182
1 185
1 188
1 189
1 191
1 192
1 194
1 195
1 198
1 199
1 201
1 202
1 203
1 204
1 206
1 207
1 208
1 209
1 212
1 213
1 216
1 217
1 218
1 219
1 225
1 227
1 228
1 229
1 234
1 235
1 236
1 237
1 238
1 239
1 240
1 246
1 247
1 248
1 251
1 252
1 253
1 254
1 255
1 261
1 263
1 264
1 268
1 269
1 270
1 273
1 274
1 276
1 279
1 280
1 281
1 282
1 283
1 284
1 285
1 288
1 289
1 292
1 293
1 294
1 295
1 298
1 299
1 300
1 302
1 303
1 304
1 307
1 308
1 309
1 310
1 311
1 312
1 316
1 317
1 321
1 322
1 323
1 324
1 327
1 328
1 329
1 333
1 334
1 335
1 336
1 337
1 338
1 339
1 340
1 341
1 342
1 343
1 344
1 345
1 346
1 347
1 348
1 349
1 350
1 351
1 352
1 353
1 354
1 355
1 356
1 357
1 358
1 359
1 360
1 361
1 362
1 363
1 364
1 365
1 366
1 367
1 368
1 369
1 370
1 371
1 372
1 373
1 374
1 375
1 376
1 377
1 378
1 379
1 380
1 381
1 382
1 383
1 384
1 385
1 386
1 387
1 388
1 389
1 390
1 391
1 392
1 393
1 394
1 395
1 396
1 397
1 398
1 399
1 400
1 401
1 402
1 403
1 404
1 405
1 406
1 407
1 408
1 409
1 410
1 411
1 412
1 413
1 414
1 415
1 416
1 417
1 418
1 419
1 420
1 421
1 422
1 423
1 424
1 425
1 426
1 427
1 428
1 429
1 430
1 431
1 432
1 433
1 434
1 435
1 436
1 437
1 438
1 439
1 440
1 441
1 442
1 443
1 444
1 445
1 446
1 447
1 448
1 449
1 450
1 451
1 452
1 453
1 454
1 455
1 456
1 457
1 458
1 459
1 460
1 461
1 462
1 463
1 464
1 465
1 466
1 467
1 468
1 469
1 470
1 471
1 472
1 473
1 474
1 475
1 476
1 477
1 478
1 479
1 480
1 481
1 482
1 483
1 484
1 485
1 486
1 487
1 488
1 489
1 490
1 491
1 492
1 493
1 494
1 495
1 496
1 497
1 498
1 499
1 500
1 501
1 502
1 503
1 504
1 505
1 506
1 507
1 508
1 509
1 510
1 511
1 512
1 513
1 514
1 515
1 516
1 517
1 518
1 519
1 520
1 521
1 522
1 523
1 524
1 525
1 526
1 527
1 528
1 529
1 530
1 531
1 532
1 533
1 534
1 535
1 536
1 537
1 538
1 539
1 540
1 541
1 542
1 543
1 544
1 545
1 546
1 547
1 548
1 549
1 550
1 551
1 552
1 553
1 554
1 555
1 556
1 557
1 558
1 559
1 560
1 561
1 562
1 563
1 564
1 565
1 566
1 567
1 568
1 569
1 570
1 571
1 572
1 573
1 574
1 575
1 576
1 577
1 578
1 579
1 580
1 581
1 582
1 583
1 584
1 585
1 586
1 587
1 588
1 589
1 590
1 591
1 592
1 593
1 594
1 595
1 596
1 597
1 598
1 599
1 600
1 601
1 602
1 603
1 604
1 605
1 606
1 607
1 608
1 609
1 610
1 611
1 612
1 613
1 614
1 615
1 616
1 617
1 618
1 619
1 620
5 8
6 7
7 8
10 11
11 12
12 13
18 20
19 20
22 23
23 25
24 25
28 29
31 32
32 33
36 38
37 38
42 43
43 45
44 45
46 47
47 48
49 51
50 51
52 54
53 54
56 57
61 62
62 65
63 64
64 65
66 70
67 68
68 69
69 71
70 71
73 75
74 75
78 79
80 81
82 83
83 84
87 88
90 91
94 95
97 98
104 106
105 107
106 107
111 112
112 113
118 119
122 124
123 124
125 126
127 128
129 130
130 132
131 132
133 134
137 138
138 139
139 140
142 143
145 146
147 148
148 150
149 150
154 155
157 158
159 160
162 163
163 164
171 173
172 173
179 180
182 184
183 184
185 186
186 187
189 190
192 193
195 196
196 197
199 200
204 205
209 211
210 211
213 214
214 215
219 220
220 221
221 222
222 224
223 224
225 226
229 230
230 231
231 233
232 233
240 245
241 243
242 243
243 244
244 245
248 249
249 250
255 256
256 258
257 258
258 260
259 260
261 262
264 265
265 267
266 267
270 271
271 272
274 275
276 278
277 278
285 287
286 287
289 290
290 291
295 297
296 297
300 301
304 306
305 306
312 313
313 314
314 315
317 318
318 320
319 320
324 325
325 326
329 331
330 332
331 332
